data/solutions/recovery/degenerate/moderate/flexible/degenerate_moderate_instance4/10.log

Log started (V12.6.3.0) Sat Apr 21 11:01:51 2018

New value for default parallel thread count: 1

Problem '/tmp/tmpnchMWY.pyomo.lp' read.
Read time = 0.00 sec. (0.02 ticks)

Problem name         : /tmp/tmpnchMWY.pyomo.lp
Objective sense      : Minimize
Variables            :      80  [Nneg: 1,  Binary: 75,  General Integer: 4]
Objective nonzeros   :       1
Linear constraints   :      58  [Less: 28,  Equal: 30]
  Nonzeros           :     976
  RHS nonzeros       :      51

Variables            : Min LB: 0.000000         Max UB: 1.000000       
Objective nonzeros   : Min   : 1.000000         Max   : 1.000000       
Linear constraints   :
  Nonzeros           : Min   : 1.000000         Max   : 1072398.       
  RHS nonzeros       : Min   : 1.000000         Max   : 3.000000       
Tried aggregator 2 times.
MIP Presolve eliminated 29 rows and 31 columns.
Aggregator did 26 substitutions.
Reduced MIP has 3 rows, 23 columns, and 60 nonzeros.
Reduced MIP has 22 binaries, 1 generals, 0 SOSs, and 0 indicators.
Presolve time = 0.00 sec. (0.23 ticks)
Found incumbent of value 1.2332822e+07 after 0.00 sec. (0.26 ticks)
Probing fixed 0 vars, tightened 2 bounds.
Probing time = 0.00 sec. (0.01 ticks)
Tried aggregator 1 time.
Reduced MIP has 3 rows, 23 columns, and 60 nonzeros.
Reduced MIP has 22 binaries, 1 generals, 0 SOSs, and 0 indicators.
Presolve time = 0.00 sec. (0.03 ticks)
Probing time = 0.00 sec. (0.01 ticks)
MIP emphasis: balance optimality and feasibility.
MIP search method: dynamic search.
Parallel mode: none, using 1 thread.
Root relaxation solution time = 0.00 sec. (0.02 ticks)

        Nodes                                         Cuts/
   Node  Left     Objective  IInf  Best Integer    Best Bound    ItCnt     Gap

*     0+    0                       1.23328e+07  1072398.0000            91.30%
      0     0  6166411.0000     1   1.23328e+07  6166411.0000        2   50.00%
*     0+    0                      6176004.0000  6166411.0000             0.16%
*     0+    0                      6171349.0000  6166411.0000             0.08%
      0     2  6166411.0000     1  6171349.0000  6166411.0000        2    0.08%
Elapsed time = 0.00 sec. (0.47 ticks, tree = 0.01 MB, solutions = 3)
*    11     9      integral     0  6167301.0000  6166411.0000       13    0.01%
*    58    14      integral     0  6166494.0000  6166411.0000       58    0.00%

Root node processing (before b&c):
  Real time             =    0.00 sec. (0.47 ticks)
Sequential b&c:
  Real time             =    0.00 sec. (0.28 ticks)
                          ------------
Total (root+branch&cut) =    0.00 sec. (0.76 ticks)

Solution pool: 5 solutions saved.

MIP - Integer optimal, tolerance (0.0001/1e-06):  Objective =  6.1664940000e+06
Current MIP best bound =  6.1664110000e+06 (gap = 83, 0.00%)
Solution time =    0.00 sec.  Iterations = 58  Nodes = 59 (14)
Deterministic time = 0.76 ticks  (235.19 ticks/sec)


Incumbent solution written to file '/tmp/tmplW8W0h.cplex.sol'.
